2023/05/23
Julia is now 1.9.0
previous version was 1.7.2
2023/11/29
gurobi is now 11.0.0
previous version was 10.0.2
solving instance uflp nldep holmberg 46 sinabc2
presolving:
(round 1, fast)       30 del vars, 2100 del conss, 0 add conss, 30 chg bounds, 0 chg sides, 0 chg coeffs, 0 upgd conss, 0 impls, 0 clqs
   (1.9s) symmetry computation started: requiring (bin +, int +, cont +), (fixed: bin -, int -, cont -)
   (1.9s) no symmetry present
presolving (2 rounds: 2 fast, 1 medium, 1 exhaustive):
 30 deleted vars, 2100 deleted constraints, 0 added constraints, 30 tightened bounds, 0 added holes, 0 changed sides, 0 changed coefficients
 0 implications, 0 cliques
presolved problem has 2160 variables (0 bin, 0 int, 0 impl, 2160 cont) and 130 constraints
    100 constraints of type <linear>
     30 constraints of type <nonlinear>
Presolving Time: 1.93

 time | node  | left  |LP iter|LP it/n|mem/heur|mdpt |vars |cons |rows |cuts |sepa|confs|strbr|  dualbound   | primalbound  |  gap   | compl. 
  1.9s|     1 |     0 |   250 |     - |    19M |   0 |2250 | 130 | 400 |   0 |  0 |   0 |   0 | 1.414287e+03 |      --      |    Inf | unknown
L 2.0s|     1 |     0 |   250 |     - |undercov|   0 |2250 | 130 | 400 |   0 |  0 |   0 |   0 | 1.414287e+03 | 1.517684e+03 |   7.31%| unknown
L 2.3s|     1 |     0 |   250 |     - |undercov|   0 |2250 | 130 | 400 |   0 |  0 |   0 |   0 | 1.414287e+03 | 1.510230e+03 |   6.78%| unknown
  2.5s|     1 |     0 |   278 |     - |    19M |   0 |2250 | 130 | 427 |  27 |  1 |   0 |   0 | 1.422089e+03 | 1.510230e+03 |   6.20%| unknown
  2.5s|     1 |     0 |   278 |     - |    19M |   0 |2250 | 130 | 427 |  27 |  1 |   0 |   0 | 1.422089e+03 | 1.510230e+03 |   6.20%| unknown
  2.5s|     1 |     0 |   281 |     - |    19M |   0 |2250 | 130 | 429 |  29 |  2 |   0 |   0 | 1.422174e+03 | 1.510230e+03 |   6.19%| unknown
  2.6s|     1 |     0 |  1264 |     - |    21M |   0 |2250 | 130 | 429 |  29 |  4 |   0 |   0 | 1.432401e+03 | 1.510230e+03 |   5.43%| unknown
  2.6s|     1 |     0 |  1315 |     - |    21M |   0 |2250 | 130 | 457 |  57 |  5 |   0 |   0 | 1.492153e+03 | 1.510230e+03 |   1.21%| unknown
  2.6s|     1 |     0 |  1345 |     - |    21M |   0 |2250 | 130 | 485 |  85 |  6 |   0 |   0 | 1.505634e+03 | 1.510230e+03 |   0.31%| unknown
  2.6s|     1 |     0 |  1348 |     - |    21M |   0 |2250 | 130 | 489 |  89 |  7 |   0 |   0 | 1.505790e+03 | 1.510230e+03 |   0.29%| unknown
  2.6s|     1 |     0 |  1349 |     - |    21M |   0 |2250 | 130 | 491 |  91 |  8 |   0 |   0 | 1.505818e+03 | 1.510230e+03 |   0.29%| unknown
  2.6s|     1 |     0 |  1351 |     - |    21M |   0 |2250 | 130 | 493 |  93 |  9 |   0 |   0 | 1.505832e+03 | 1.510230e+03 |   0.29%| unknown
  2.6s|     1 |     0 |  1352 |     - |    21M |   0 |2250 | 130 | 494 |  94 | 10 |   0 |   0 | 1.505834e+03 | 1.510230e+03 |   0.29%| unknown
L 2.8s|     1 |     0 |  1352 |     - |  subnlp|   0 |2250 | 130 | 494 |  94 | 12 |   0 |   0 | 1.505834e+03 | 1.510230e+03 |   0.29%| unknown
  2.8s|     1 |     0 |  1352 |     - |    21M |   0 |2250 | 130 | 494 |  94 | 12 |   0 |   0 | 1.505834e+03 | 1.510230e+03 |   0.29%| unknown
 time | node  | left  |LP iter|LP it/n|mem/heur|mdpt |vars |cons |rows |cuts |sepa|confs|strbr|  dualbound   | primalbound  |  gap   | compl. 
  2.8s|     1 |     2 |  1352 |     - |    21M |   0 |2250 | 130 | 494 |  94 | 14 |   0 |   0 | 1.505834e+03 | 1.510230e+03 |   0.29%| unknown
L 3.1s|     3 |     4 |  1381 | 488.0 |  subnlp|   2 |2250 | 130 | 217 | 120 |  2 |   0 |   0 | 1.505834e+03 | 1.510230e+03 |   0.29%| unknown
d 3.5s|     5 |     6 |  1387 | 245.5 |adaptive|   3 |2250 | 130 | 220 | 124 |  2 |   0 |   0 | 1.505834e+03 | 1.510230e+03 |   0.29%| unknown
  4.0s|   100 |    55 |  1699 |  13.1 |    24M |  13 |2250 | 130 | 232 | 319 |  2 |   0 |   0 | 1.509483e+03 | 1.510230e+03 |   0.05%|  67.16%
  4.1s|   200 |    61 |  1917 |   7.6 |    24M |  17 |2250 | 130 | 268 | 446 |  2 |   0 |   0 | 1.509769e+03 | 1.510230e+03 |   0.03%|  74.59%
  4.3s|   300 |    55 |  2097 |   5.7 |    24M |  20 |2250 | 130 | 238 | 539 |  2 |   0 |   0 | 1.509838e+03 | 1.510230e+03 |   0.03%|  77.75%
  4.5s|   400 |    41 |  2273 |   4.7 |    24M |  23 |2250 | 130 | 242 | 624 |  0 |   0 |   0 | 1.509974e+03 | 1.510230e+03 |   0.02%|  87.47%
  4.7s|   500 |    35 |  2482 |   4.2 |    24M |  30 |2250 | 130 | 248 | 713 |  2 |   0 |   0 | 1.510061e+03 | 1.510230e+03 |   0.01%|  94.02%
  4.8s|   600 |    23 |  2669 |   3.8 |    24M |  34 |2250 | 130 | 258 | 800 |  0 |   0 |   0 | 1.510124e+03 | 1.510230e+03 |   0.01%|  96.12%
  4.9s|   700 |    23 |  2839 |   3.5 |    24M |  54 |2250 | 130 | 305 | 885 |  0 |   0 |   0 | 1.510189e+03 | 1.510230e+03 |   0.00%|  98.55%
  5.1s|   800 |    23 |  3000 |   3.2 |    24M |  74 |2250 | 130 | 336 | 970 |  2 |   0 |   0 | 1.510197e+03 | 1.510230e+03 |   0.00%|  99.90%

SCIP Status        : problem is solved [optimal solution found]
Solving Time (sec) : 5.19
Solving Nodes      : 855
Primal Bound       : +1.51022950659671e+03 (6 solutions)
Dual Bound         : +1.51022950659671e+03
Gap                : 0.00 %
reading holmberg data file ../../../../../instances/uflp/holmberg/p46
primal_bound = 1510.2295065967087, dual_bound = 1510.2295065967087, gap = 0.0, time = 10.34
